Problem:    courses_integer
Rows:       4
Columns:    4 (4 integer, 4 binary)
Non-zeros:  16
Status:     INTEGER OPTIMAL
Objective:  effort_exerted = 12 (MINimum)

   No.   Row name        Activity     Lower bound   Upper bound
------ ------------    ------------- ------------- -------------
     1 effort_exerted
                                  12                             
     2 required_points[ns]
                                  15            10               
     3 required_points[ss]
                                  14            10               
     4 required_points[hu]
                                  10            10               

   No. Column name       Activity     Lower bound   Upper bound
------ ------------    ------------- ------------- -------------
     1 take_class[neuro]
                    *              1             0             1 
     2 take_class[stats]
                    *              1             0             1 
     3 take_class[bioph]
                    *              0             0             1 
     4 take_class[gwarm]
                    *              1             0             1 

Integer feasibility conditions:

KKT.PE: max.abs.err = 0.00e+00 on row 0
        max.rel.err = 0.00e+00 on row 0
        High quality

KKT.PB: max.abs.err = 0.00e+00 on row 0
        max.rel.err = 0.00e+00 on row 0
        High quality

End of output
